Welcome to the CBC MILP Solver 
Version: 2.10.3 
Build Date: Dec 15 2019 

command line - /home/gweisheit/.local/lib/python3.8/site-packages/pulp/solverdir/cbc/linux/64/cbc /tmp/1f96ec3668994c019983a5547c895d79-pulp.mps -sec 48000 -timeMode elapsed -branch -printingOptions all -solution /tmp/1f96ec3668994c019983a5547c895d79-pulp.sol (default strategy 1)
At line 2 NAME          MODEL
At line 3 ROWS
At line 12546 COLUMNS
At line 97980 RHS
At line 110522 BOUNDS
At line 114444 ENDATA
Problem MODEL has 12541 rows, 3921 columns and 72710 elements
Coin0008I MODEL read with 0 errors
seconds was changed from 1e+100 to 48000
Option for timeMode changed from cpu to elapsed
Continuous objective value is 0.257857 - 0.21 seconds
Cgl0002I 1291 variables fixed
Cgl0003I 223 fixed, 0 tightened bounds, 1761 strengthened rows, 1539 substitutions
Cgl0003I 33 fixed, 0 tightened bounds, 588 strengthened rows, 172 substitutions
Cgl0003I 0 fixed, 0 tightened bounds, 614 strengthened rows, 110 substitutions
Cgl0003I 0 fixed, 0 tightened bounds, 1068 strengthened rows, 0 substitutions
Cgl0003I 0 fixed, 0 tightened bounds, 1295 strengthened rows, 0 substitutions
Cgl0003I 0 fixed, 0 tightened bounds, 1036 strengthened rows, 0 substitutions
Cgl0003I 0 fixed, 0 tightened bounds, 994 strengthened rows, 0 substitutions
Cgl0003I 0 fixed, 0 tightened bounds, 968 strengthened rows, 0 substitutions
Cgl0003I 0 fixed, 0 tightened bounds, 903 strengthened rows, 0 substitutions
Cgl0003I 0 fixed, 0 tightened bounds, 802 strengthened rows, 0 substitutions
Cgl0003I 0 fixed, 0 tightened bounds, 717 strengthened rows, 0 substitutions
Cgl0004I processed model has 2292 rows, 1268 columns (1268 integer (1267 of which binary)) and 25933 elements
Cutoff increment increased from 1e-05 to 0.9999
Cbc0045I 1 integer variables out of 1268 objects (1268 integer) have cost of 1 - high priority
Cbc0045I branch on satisfied Y create fake objective Y random cost Y
Cbc0038I Initial state - 281 integers unsatisfied sum - 40.6239
Cbc0038I Pass   1: suminf.    9.96429 (28) obj. 11.4643 iterations 1285
Cbc0038I Pass   2: suminf.    4.25746 (18) obj. 12.0663 iterations 272
Cbc0038I Pass   3: suminf.    4.25746 (18) obj. 12.0663 iterations 6
Cbc0038I Pass   4: suminf.    5.00000 (10) obj. 13 iterations 135
Cbc0038I Pass   5: suminf.    3.57143 (13) obj. 13 iterations 60
Cbc0038I Pass   6: suminf.    3.53333 (13) obj. 13 iterations 49
Cbc0038I Pass   7: suminf.    5.14286 (12) obj. 13 iterations 129
Cbc0038I Pass   8: suminf.    1.08571 (11) obj. 13 iterations 135
Cbc0038I Pass   9: suminf.    0.94286 (8) obj. 13 iterations 9
Cbc0038I Pass  10: suminf.    1.60000 (10) obj. 13 iterations 71
Cbc0038I Pass  11: suminf.    0.26667 (2) obj. 13 iterations 88
Cbc0038I Pass  12: suminf.    0.14286 (2) obj. 13 iterations 12
Cbc0038I Pass  13: suminf.    1.16089 (45) obj. 13 iterations 482
Cbc0038I Pass  14: suminf.    0.51057 (16) obj. 13 iterations 431
Cbc0038I Pass  15: suminf.    1.42524 (19) obj. 13 iterations 245
Cbc0038I Pass  16: suminf.    1.08851 (19) obj. 13 iterations 167
Cbc0038I Pass  17: suminf.    2.46667 (14) obj. 13 iterations 127
Cbc0038I Pass  18: suminf.    0.55348 (13) obj. 13 iterations 187
Cbc0038I Pass  19: suminf.    0.48889 (4) obj. 13 iterations 164
Cbc0038I Pass  20: suminf.    0.40952 (4) obj. 13 iterations 92
Cbc0038I Pass  21: suminf.    0.36364 (2) obj. 13 iterations 94
Cbc0038I Pass  22: suminf.    0.14286 (2) obj. 13 iterations 81
Cbc0038I Pass  23: suminf.    2.62500 (21) obj. 13.125 iterations 537
Cbc0038I Pass  24: suminf.    0.80000 (6) obj. 13 iterations 381
Cbc0038I Solution found of 13
Cbc0038I Cleaned solution of 13
Cbc0038I Before mini branch and bound, 909 integers at bound fixed and 0 continuous
Cbc0038I Full problem 2292 rows 1268 columns, reduced to 1280 rows 266 columns
Cbc0038I Mini branch and bound did not improve solution (9.18 seconds)
Cbc0038I Round again with cutoff of 10.9559
Cbc0038I Pass  25: suminf.   10.44367 (33) obj. 10 iterations 28
Cbc0038I Pass  26: suminf.    3.41024 (26) obj. 10.9559 iterations 387
Cbc0038I Pass  27: suminf.    2.39401 (11) obj. 10.9559 iterations 126
Cbc0038I Pass  28: suminf.    2.74625 (18) obj. 10.9559 iterations 216
Cbc0038I Pass  29: suminf.    1.87985 (19) obj. 10.9559 iterations 215
Cbc0038I Pass  30: suminf.    3.89009 (15) obj. 10.1887 iterations 226
Cbc0038I Pass  31: suminf.    2.29762 (14) obj. 10.9559 iterations 96
Cbc0038I Pass  32: suminf.    2.17829 (14) obj. 10.9559 iterations 6
Cbc0038I Pass  33: suminf.    1.81700 (15) obj. 10.9559 iterations 156
Cbc0038I Pass  34: suminf.    1.60196 (19) obj. 10.9559 iterations 184
Cbc0038I Pass  35: suminf.    2.67970 (20) obj. 10.9559 iterations 184
Cbc0038I Pass  36: suminf.    2.09735 (16) obj. 10.9559 iterations 21
Cbc0038I Pass  37: suminf.    1.97802 (16) obj. 10.9559 iterations 27
Cbc0038I Pass  38: suminf.    2.43987 (11) obj. 10.9559 iterations 135
Cbc0038I Pass  39: suminf.    1.86902 (12) obj. 10.9559 iterations 131
Cbc0038I Pass  40: suminf.    2.29996 (20) obj. 10.9559 iterations 280
Cbc0038I Pass  41: suminf.    1.60196 (15) obj. 10.9559 iterations 270
Cbc0038I Pass  42: suminf.    3.37834 (16) obj. 10.9559 iterations 185
Cbc0038I Pass  43: suminf.    2.29762 (14) obj. 10.9559 iterations 92
Cbc0038I Pass  44: suminf.    2.17829 (14) obj. 10.9559 iterations 12
Cbc0038I Pass  45: suminf.    2.81043 (12) obj. 10.9559 iterations 150
Cbc0038I Pass  46: suminf.    2.02881 (16) obj. 10.9559 iterations 193
Cbc0038I Pass  47: suminf.    2.66982 (17) obj. 10.9559 iterations 279
Cbc0038I Pass  48: suminf.    2.30463 (16) obj. 10.9559 iterations 106
Cbc0038I Pass  49: suminf.    2.35591 (15) obj. 10.9559 iterations 233
Cbc0038I Pass  50: suminf.    1.66087 (19) obj. 10.9559 iterations 138
Cbc0038I Pass  51: suminf.    4.55556 (17) obj. 10 iterations 261
Cbc0038I Pass  52: suminf.    3.55746 (15) obj. 10.9559 iterations 98
Cbc0038I Pass  53: suminf.    2.97511 (12) obj. 10.9559 iterations 12
Cbc0038I Pass  54: suminf.    2.97511 (12) obj. 10.9559 iterations 25
Cbc0038I Pass  55: suminf.    2.40138 (13) obj. 10.9559 iterations 120
Cbc0038I Pass  56: suminf.    1.71968 (16) obj. 10.9559 iterations 197
Cbc0038I Pass  57: suminf.    4.26980 (14) obj. 10.2985 iterations 201
Cbc0038I Pass  58: suminf.    2.29498 (16) obj. 10.9559 iterations 115
Cbc0038I Pass  59: suminf.    2.18442 (16) obj. 10.9559 iterations 10
Cbc0038I Pass  60: suminf.    1.48120 (14) obj. 10.9559 iterations 180
Cbc0038I Pass  61: suminf.    1.40351 (14) obj. 10.9559 iterations 229
Cbc0038I Pass  62: suminf.    4.58654 (11) obj. 10 iterations 203
Cbc0038I Pass  63: suminf.    1.13981 (12) obj. 10.9559 iterations 158
Cbc0038I Pass  64: suminf.    1.13876 (13) obj. 10.9559 iterations 44
Cbc0038I Pass  65: suminf.    4.18182 (12) obj. 10 iterations 210
Cbc0038I Pass  66: suminf.    2.20102 (13) obj. 10.9559 iterations 106
Cbc0038I Pass  67: suminf.    1.86381 (13) obj. 10.9559 iterations 59
Cbc0038I Pass  68: suminf.    1.41823 (15) obj. 10.9559 iterations 227
Cbc0038I Pass  69: suminf.    1.40351 (14) obj. 10.9559 iterations 101
Cbc0038I Pass  70: suminf.    4.58654 (11) obj. 10 iterations 241
Cbc0038I Pass  71: suminf.    2.40757 (16) obj. 10.9559 iterations 88
Cbc0038I Pass  72: suminf.    0.99695 (12) obj. 10.9559 iterations 93
Cbc0038I Pass  73: suminf.    4.18182 (11) obj. 10 iterations 153
Cbc0038I Pass  74: suminf.    1.71593 (15) obj. 10.9559 iterations 169
Cbc0038I Pass  75: suminf.    1.68996 (15) obj. 10.9559 iterations 88
Cbc0038I Pass  76: suminf.    2.66982 (15) obj. 10.9559 iterations 165
Cbc0038I Pass  77: suminf.    2.30463 (17) obj. 10.9559 iterations 121
Cbc0038I Pass  78: suminf.    2.80538 (14) obj. 10.9559 iterations 225
Cbc0038I Pass  79: suminf.    1.59929 (16) obj. 10.9559 iterations 90
Cbc0038I Pass  80: suminf.    3.42721 (16) obj. 10.9559 iterations 178
Cbc0038I Pass  81: suminf.    2.29498 (16) obj. 10.9559 iterations 80
Cbc0038I Pass  82: suminf.    2.18442 (16) obj. 10.9559 iterations 11
Cbc0038I Pass  83: suminf.    1.48120 (14) obj. 10.9559 iterations 167
Cbc0038I Pass  84: suminf.    1.40351 (14) obj. 10.9559 iterations 171
Cbc0038I Pass  85: suminf.    4.58654 (11) obj. 10 iterations 185
Cbc0038I Pass  86: suminf.    0.99695 (12) obj. 10.9559 iterations 129
Cbc0038I Pass  87: suminf.    0.99695 (12) obj. 10.9559 iterations 36
Cbc0038I Pass  88: suminf.    4.18182 (11) obj. 10 iterations 213
Cbc0038I Pass  89: suminf.    2.46880 (14) obj. 10.9559 iterations 123
Cbc0038I Pass  90: suminf.    1.86993 (14) obj. 10.9559 iterations 64
Cbc0038I Pass  91: suminf.    1.48120 (14) obj. 10.9559 iterations 204
Cbc0038I Pass  92: suminf.    1.40351 (14) obj. 10.9559 iterations 182
Cbc0038I Pass  93: suminf.    2.85273 (13) obj. 10.9559 iterations 192
Cbc0038I Pass  94: suminf.    1.13876 (13) obj. 10.9559 iterations 131
Cbc0038I Pass  95: suminf.    1.13876 (13) obj. 10.9559 iterations 46
Cbc0038I Pass  96: suminf.    4.18182 (12) obj. 10 iterations 256
Cbc0038I Pass  97: suminf.    2.20102 (13) obj. 10.9559 iterations 65
Cbc0038I Pass  98: suminf.    1.86381 (13) obj. 10.9559 iterations 97
Cbc0038I Pass  99: suminf.    1.41823 (15) obj. 10.9559 iterations 230
Cbc0038I Pass 100: suminf.    1.40351 (14) obj. 10.9559 iterations 101
Cbc0038I Pass 101: suminf.    4.58654 (11) obj. 10 iterations 233
Cbc0038I Pass 102: suminf.    1.95829 (14) obj. 10.9559 iterations 157
Cbc0038I Pass 103: suminf.    0.99695 (12) obj. 10.9559 iterations 125
Cbc0038I Pass 104: suminf.    2.11001 (14) obj. 10.9559 iterations 150
Cbc0038I Pass 105: suminf.    1.68996 (15) obj. 10.9559 iterations 208
Cbc0038I Pass 106: suminf.    2.88607 (12) obj. 10.9559 iterations 186
Cbc0038I Pass 107: suminf.    2.31062 (15) obj. 10.9559 iterations 176
Cbc0038I Pass 108: suminf.    3.89803 (15) obj. 10.2985 iterations 129
Cbc0038I Pass 109: suminf.    2.29498 (16) obj. 10.9559 iterations 110
Cbc0038I Pass 110: suminf.    2.18442 (16) obj. 10.9559 iterations 10
Cbc0038I Pass 111: suminf.    1.48120 (14) obj. 10.9559 iterations 200
Cbc0038I Pass 112: suminf.    1.40351 (14) obj. 10.9559 iterations 173
Cbc0038I Pass 113: suminf.    4.58654 (11) obj. 10 iterations 214
Cbc0038I Pass 114: suminf.    2.27461 (11) obj. 10.9559 iterations 62
Cbc0038I Pass 115: suminf.    2.17639 (13) obj. 10.9559 iterations 138
Cbc0038I Pass 116: suminf.    2.55678 (13) obj. 10.9559 iterations 160
Cbc0038I Pass 117: suminf.    1.62802 (15) obj. 10.9559 iterations 214
Cbc0038I Pass 118: suminf.    1.99099 (12) obj. 10.9559 iterations 176
Cbc0038I Pass 119: suminf.    1.63094 (14) obj. 10.9559 iterations 94
Cbc0038I Pass 120: suminf.    1.47237 (12) obj. 10.9559 iterations 231
Cbc0038I Pass 121: suminf.    1.40351 (14) obj. 10.9559 iterations 134
Cbc0038I Pass 122: suminf.    2.10654 (11) obj. 10.9559 iterations 175
Cbc0038I Pass 123: suminf.    1.13876 (13) obj. 10.9559 iterations 133
Cbc0038I Pass 124: suminf.    8.51214 (53) obj. 10.9559 iterations 533
Cbc0038I No solution found this major pass
Cbc0038I Before mini branch and bound, 911 integers at bound fixed and 0 continuous
Cbc0038I Full problem 2292 rows 1268 columns, reduced to 1272 rows 261 columns
Cbc0038I Mini branch and bound improved solution from 13 to 11 (16.84 seconds)
Cbc0038I Round again with cutoff of 8.31162
Cbc0038I Pass 124: suminf.   13.14850 (54) obj. 8.31162 iterations 7
Cbc0038I Pass 125: suminf.    8.99836 (34) obj. 8.31162 iterations 307
Cbc0038I Pass 126: suminf.    7.86100 (32) obj. 8.31162 iterations 96
Cbc0038I Pass 127: suminf.    8.09266 (30) obj. 8.31162 iterations 56
Cbc0038I Pass 128: suminf.    7.86100 (32) obj. 8.31162 iterations 85
Cbc0038I Pass 129: suminf.   16.21273 (65) obj. 8.31162 iterations 467
Cbc0038I Pass 130: suminf.    4.52505 (20) obj. 8.31162 iterations 361
Cbc0038I Pass 131: suminf.    4.37806 (21) obj. 8.31162 iterations 56
Cbc0038I Pass 132: suminf.    4.75101 (17) obj. 8 iterations 92
Cbc0038I Pass 133: suminf.    4.21516 (23) obj. 8.31162 iterations 135
Cbc0038I Pass 134: suminf.    4.66290 (16) obj. 8.31162 iterations 237
Cbc0038I Pass 135: suminf.    3.56623 (18) obj. 8.31162 iterations 84
Cbc0038I Pass 136: suminf.    4.81123 (20) obj. 8.31162 iterations 119
Cbc0038I Pass 137: suminf.    4.27576 (22) obj. 8.31162 iterations 99
Cbc0038I Pass 138: suminf.    4.23204 (20) obj. 8.31162 iterations 9
Cbc0038I Pass 139: suminf.    5.21985 (19) obj. 8.31162 iterations 84
Cbc0038I Pass 140: suminf.    4.01700 (18) obj. 8.31162 iterations 53
Cbc0038I Pass 141: suminf.    3.43085 (18) obj. 8.31162 iterations 52
Cbc0038I Pass 142: suminf.    5.30065 (19) obj. 8.31162 iterations 97
Cbc0038I Pass 143: suminf.    4.27576 (23) obj. 8.31162 iterations 108
Cbc0038I Pass 144: suminf.    4.23204 (21) obj. 8.31162 iterations 12
Cbc0038I Pass 145: suminf.    6.36423 (17) obj. 8.31162 iterations 159
Cbc0038I Pass 146: suminf.    3.79781 (21) obj. 8.31162 iterations 297
Cbc0038I Pass 147: suminf.    3.79781 (21) obj. 8.31162 iterations 7
Cbc0038I Pass 148: suminf.    5.68998 (17) obj. 8 iterations 136
Cbc0038I Pass 149: suminf.    4.45128 (19) obj. 8.31162 iterations 91
Cbc0038I Pass 150: suminf.    3.50138 (19) obj. 8.31162 iterations 37
Cbc0038I Pass 151: suminf.    5.63186 (19) obj. 8.31162 iterations 125
Cbc0038I Pass 152: suminf.    5.63186 (19) obj. 8.31162 iterations 84
Cbc0038I Pass 153: suminf.    5.21002 (21) obj. 8.31162 iterations 63
Cbc0038I Pass 154: suminf.    4.71304 (22) obj. 8.31162 iterations 60
Cbc0038I Pass 155: suminf.    5.75451 (22) obj. 8.31162 iterations 177
Cbc0038I Pass 156: suminf.    5.23650 (23) obj. 8.31162 iterations 156
Cbc0038I Pass 157: suminf.    5.23650 (23) obj. 8.31162 iterations 8
Cbc0038I Pass 158: suminf.    6.75726 (17) obj. 8.31162 iterations 142
Cbc0038I Pass 159: suminf.    3.90437 (21) obj. 8.31162 iterations 104
Cbc0038I Pass 160: suminf.    3.90437 (21) obj. 8.31162 iterations 47
Cbc0038I Pass 161: suminf.    5.97794 (19) obj. 8.31162 iterations 156
Cbc0038I Pass 162: suminf.    5.09918 (21) obj. 8.31162 iterations 50
Cbc0038I Pass 163: suminf.    5.09918 (21) obj. 8.31162 iterations 37
Cbc0038I Pass 164: suminf.    4.77876 (21) obj. 8.31162 iterations 137
Cbc0038I Pass 165: suminf.    4.77652 (21) obj. 8.31162 iterations 98
Cbc0038I Pass 166: suminf.    4.89292 (21) obj. 8.31162 iterations 189
Cbc0038I Pass 167: suminf.    4.49727 (21) obj. 8.31162 iterations 82
Cbc0038I Pass 168: suminf.    6.05445 (20) obj. 8.31162 iterations 152
Cbc0038I Pass 169: suminf.    3.90437 (21) obj. 8.31162 iterations 98
Cbc0038I Pass 170: suminf.    3.90437 (21) obj. 8.31162 iterations 8
Cbc0038I Pass 171: suminf.    4.61473 (20) obj. 8.31162 iterations 48
Cbc0038I Pass 172: suminf.    4.24452 (20) obj. 8.31162 iterations 26
Cbc0038I Pass 173: suminf.    6.82828 (19) obj. 8.31162 iterations 144
Cbc0038I Pass 174: suminf.    4.80715 (23) obj. 8.31162 iterations 84
Cbc0038I Pass 175: suminf.    4.80715 (23) obj. 8.31162 iterations 14
Cbc0038I Pass 176: suminf.    4.39281 (20) obj. 8.31162 iterations 112
Cbc0038I Pass 177: suminf.    4.20183 (22) obj. 8.31162 iterations 73
Cbc0038I Pass 178: suminf.    6.77577 (16) obj. 8.31162 iterations 208
Cbc0038I Pass 179: suminf.    5.67026 (17) obj. 8.31162 iterations 90
Cbc0038I Pass 180: suminf.    5.11235 (20) obj. 8.31162 iterations 35
Cbc0038I Pass 181: suminf.    4.89292 (21) obj. 8.31162 iterations 132
Cbc0038I Pass 182: suminf.    4.49727 (21) obj. 8.31162 iterations 80
Cbc0038I Pass 183: suminf.    5.47167 (22) obj. 8.31162 iterations 120
Cbc0038I Pass 184: suminf.    4.28529 (21) obj. 8.31162 iterations 76
Cbc0038I Pass 185: suminf.    4.10250 (22) obj. 8.31162 iterations 30
Cbc0038I Pass 186: suminf.    4.87571 (20) obj. 8.31162 iterations 44
Cbc0038I Pass 187: suminf.    4.44099 (21) obj. 8.31162 iterations 38
Cbc0038I Pass 188: suminf.    4.44099 (21) obj. 8.31162 iterations 3
Cbc0038I Pass 189: suminf.    4.90911 (23) obj. 8.31162 iterations 202
Cbc0038I Pass 190: suminf.    4.77652 (21) obj. 8.31162 iterations 56
Cbc0038I Pass 191: suminf.    4.89292 (21) obj. 8.31162 iterations 153
Cbc0038I Pass 192: suminf.    4.49727 (21) obj. 8.31162 iterations 118
Cbc0038I Pass 193: suminf.    6.05445 (20) obj. 8.31162 iterations 282
Cbc0038I Pass 194: suminf.    3.90437 (21) obj. 8.31162 iterations 171
Cbc0038I Pass 195: suminf.    3.90437 (21) obj. 8.31162 iterations 29
Cbc0038I Pass 196: suminf.    5.97794 (19) obj. 8.31162 iterations 202
Cbc0038I Pass 197: suminf.    5.31562 (22) obj. 8.31162 iterations 47
Cbc0038I Pass 198: suminf.    5.09918 (21) obj. 8.31162 iterations 16
Cbc0038I Pass 199: suminf.    5.09918 (21) obj. 8.31162 iterations 21
Cbc0038I Pass 200: suminf.    4.77876 (21) obj. 8.31162 iterations 118
Cbc0038I Pass 201: suminf.    4.77652 (21) obj. 8.31162 iterations 116
Cbc0038I Pass 202: suminf.    5.49091 (16) obj. 8 iterations 202
Cbc0038I Pass 203: suminf.    4.99510 (19) obj. 8.31162 iterations 79
Cbc0038I Pass 204: suminf.    4.91594 (19) obj. 8.31162 iterations 24
Cbc0038I Pass 205: suminf.    5.72274 (18) obj. 8.31162 iterations 55
Cbc0038I Pass 206: suminf.    4.84398 (23) obj. 8.31162 iterations 53
Cbc0038I Pass 207: suminf.    4.76482 (23) obj. 8.31162 iterations 36
Cbc0038I Pass 208: suminf.    5.77876 (20) obj. 8.31162 iterations 158
Cbc0038I Pass 209: suminf.    5.35087 (23) obj. 8.31162 iterations 147
Cbc0038I Pass 210: suminf.    5.35087 (23) obj. 8.31162 iterations 6
Cbc0038I Pass 211: suminf.    4.95304 (18) obj. 8.31162 iterations 196
Cbc0038I Pass 212: suminf.    4.95304 (21) obj. 8.31162 iterations 95
Cbc0038I Pass 213: suminf.    4.86523 (19) obj. 8.31162 iterations 183
Cbc0038I Pass 214: suminf.    3.70648 (21) obj. 8.31162 iterations 86
Cbc0038I Pass 215: suminf.    3.70648 (21) obj. 8.31162 iterations 2
Cbc0038I Pass 216: suminf.    5.76151 (20) obj. 8.31162 iterations 168
Cbc0038I Pass 217: suminf.    5.09918 (21) obj. 8.31162 iterations 44
Cbc0038I Pass 218: suminf.    5.09918 (21) obj. 8.31162 iterations 17
Cbc0038I Pass 219: suminf.    4.77876 (21) obj. 8.31162 iterations 140
Cbc0038I Pass 220: suminf.    4.77652 (21) obj. 8.31162 iterations 115
Cbc0038I Pass 221: suminf.    4.89292 (21) obj. 8.31162 iterations 147
Cbc0038I Pass 222: suminf.    4.49727 (21) obj. 8.31162 iterations 82
Cbc0038I Pass 223: suminf.   17.76546 (46) obj. 8.31162 iterations 548
Cbc0038I No solution found this major pass
Cbc0038I Before mini branch and bound, 880 integers at bound fixed and 0 continuous
Cbc0038I Full problem 2292 rows 1268 columns, reduced to 1331 rows 283 columns - 5 fixed gives 726, 191 - ok now
Cbc0038I Full problem 2292 rows 1268 columns, reduced to 676 rows 186 columns
Cbc0038I Mini branch and bound did not improve solution (19.09 seconds)
Cbc0038I After 19.09 seconds - Feasibility pump exiting with objective of 11 - took 13.63 seconds
Cbc0012I Integer solution of 11 found by feasibility pump after 0 iterations and 0 nodes (19.09 seconds)
Cbc0038I Full problem 2292 rows 1268 columns, reduced to 1097 rows 195 columns
Cbc0031I 81 added rows had average density of 14.876543
Cbc0013I At root node, 81 cuts changed objective from 1.5576901 to 5.7155329 in 29 passes
Cbc0014I Cut generator 0 (Probing) - 4945 row cuts average 9.0 elements, 7 column cuts (48 active)  in 0.648 seconds - new frequency is 1
Cbc0014I Cut generator 1 (Gomory) - 24 row cuts average 53.2 elements, 0 column cuts (0 active)  in 0.544 seconds - new frequency is 1
Cbc0014I Cut generator 2 (Knapsack) - 10 row cuts average 10.4 elements, 0 column cuts (0 active)  in 0.097 seconds - new frequency is 1
Cbc0014I Cut generator 3 (Clique) - 22 row cuts average 8.4 elements, 0 column cuts (0 active)  in 0.037 seconds - new frequency is -100
Cbc0014I Cut generator 4 (MixedIntegerRounding2) - 0 row cuts average 0.0 elements, 0 column cuts (0 active)  in 0.076 seconds - new frequency is -100
Cbc0014I Cut generator 5 (FlowCover) - 0 row cuts average 0.0 elements, 0 column cuts (0 active)  in 0.037 seconds - new frequency is -100
Cbc0014I Cut generator 6 (TwoMirCuts) - 427 row cuts average 36.8 elements, 0 column cuts (0 active)  in 0.135 seconds - new frequency is 1
Cbc0014I Cut generator 7 (ZeroHalf) - 93 row cuts average 13.7 elements, 0 column cuts (0 active)  in 0.550 seconds - new frequency is 1
Cbc0010I After 0 nodes, 1 on tree, 11 best solution, best possible 6 (25.37 seconds)
Cbc0038I Full problem 2292 rows 1268 columns, reduced to 322 rows 119 columns
Cbc0038I Full problem 2373 rows 1268 columns, reduced to 1741 rows 932 columns
Cbc0044I Reduced cost fixing - 1741 rows, 932 columns - restarting search
Cbc0038I Unable to insert previous solution - using cutoff of 11
Cbc0038I Initial state - 103 integers unsatisfied sum - 32.4018
Cbc0038I Pass   1: suminf.    7.74115 (49) obj. 5.85366 iterations 756
Cbc0038I Pass   2: suminf.    2.82646 (27) obj. 7.33328 iterations 521
Cbc0038I Pass   3: suminf.    2.82646 (27) obj. 7.33328 iterations 8
Cbc0038I Pass   4: suminf.    3.64585 (21) obj. 8.79512 iterations 224
Cbc0038I Pass   5: suminf.    3.43089 (22) obj. 8.89295 iterations 97
Cbc0038I Pass   6: suminf.    7.00000 (14) obj. 9 iterations 235
Cbc0038I Pass   7: suminf.    7.00000 (14) obj. 9 iterations 85
Cbc0038I Pass   8: suminf.    6.66667 (18) obj. 9.33333 iterations 82
Cbc0038I Pass   9: suminf.    6.32000 (19) obj. 8.8 iterations 103
Cbc0038I Pass  10: suminf.    4.19643 (19) obj. 8.65079 iterations 265
Cbc0038I No solution found this major pass
Cbc0038I Before mini branch and bound, 789 integers at bound fixed and 0 continuous
Cbc0038I Full problem 1741 rows 932 columns, reduced to 384 rows 101 columns
Cbc0038I Mini branch and bound did not improve solution (38.91 seconds)
Cbc0038I After 38.91 seconds - Feasibility pump exiting - took 0.40 seconds
Cbc0031I 54 added rows had average density of 14.351852
Cbc0013I At root node, 54 cuts changed objective from 5 to 7 in 10 passes
Cbc0014I Cut generator 0 (Probing) - 992 row cuts average 8.6 elements, 2 column cuts (2 active)  in 0.175 seconds - new frequency is 1
Cbc0014I Cut generator 1 (Gomory) - 61 row cuts average 329.0 elements, 0 column cuts (0 active)  in 0.139 seconds - new frequency is 1
Cbc0014I Cut generator 2 (Knapsack) - 7 row cuts average 14.0 elements, 0 column cuts (0 active)  in 0.026 seconds - new frequency is 1
Cbc0014I Cut generator 3 (Clique) - 3 row cuts average 5.0 elements, 0 column cuts (0 active)  in 0.005 seconds - new frequency is -100
Cbc0014I Cut generator 4 (MixedIntegerRounding2) - 0 row cuts average 0.0 elements, 0 column cuts (0 active)  in 0.016 seconds - new frequency is -100
Cbc0014I Cut generator 5 (FlowCover) - 0 row cuts average 0.0 elements, 0 column cuts (0 active)  in 0.008 seconds - new frequency is -100
Cbc0014I Cut generator 6 (TwoMirCuts) - 150 row cuts average 76.1 elements, 0 column cuts (0 active)  in 0.175 seconds - new frequency is 1
Cbc0014I Cut generator 7 (ZeroHalf) - 67 row cuts average 12.0 elements, 0 column cuts (0 active)  in 0.085 seconds - new frequency is 1
Cbc0014I Cut generator 9 (Stored from first) - 122 row cuts average 14.2 elements, 0 column cuts (0 active)
Cbc0010I After 0 nodes, 1 on tree, 1e+50 best solution, best possible 7 (42.55 seconds)
Cbc0004I Integer solution of 10 found after 13407 iterations and 25 nodes (49.01 seconds)
Cbc0038I Full problem 1741 rows 932 columns, reduced to 285 rows 82 columns
Cbc0038I Full problem 1741 rows 932 columns, reduced to 280 rows 100 columns
Cbc0038I Full problem 1741 rows 932 columns, reduced to 260 rows 82 columns
Cbc0010I After 100 nodes, 6 on tree, 10 best solution, best possible 7 (60.84 seconds)
Cbc0016I Integer solution of 9 found by strong branching after 46013 iterations and 132 nodes (64.21 seconds)
Cbc0038I Full problem 1741 rows 932 columns, reduced to 277 rows 97 columns
Cbc0010I After 200 nodes, 6 on tree, 9 best solution, best possible 7 (70.78 seconds)
Cbc0010I After 300 nodes, 8 on tree, 9 best solution, best possible 8 (80.60 seconds)
Cbc0038I Full problem 1741 rows 932 columns, reduced to 348 rows 120 columns
Cbc0010I After 400 nodes, 9 on tree, 9 best solution, best possible 8 (87.29 seconds)
Cbc0001I Search completed - best objective 9, took 107762 iterations and 487 nodes (91.62 seconds)
Cbc0032I Strong branching done 3122 times (109530 iterations), fathomed 10 nodes and fixed 64 variables
Cbc0035I Maximum depth 30, 278 variables fixed on reduced cost
Cbc0038I Probing was tried 351 times and created 5673 cuts of which 0 were active after adding rounds of cuts (0.934 seconds)
Cbc0038I Gomory was tried 343 times and created 87 cuts of which 0 were active after adding rounds of cuts (0.965 seconds)
Cbc0038I Knapsack was tried 343 times and created 110 cuts of which 0 were active after adding rounds of cuts (0.613 seconds)
Cbc0038I Clique was tried 10 times and created 3 cuts of which 0 were active after adding rounds of cuts (0.005 seconds)
Cbc0038I MixedIntegerRounding2 was tried 10 times and created 0 cuts of which 0 were active after adding rounds of cuts (0.016 seconds)
Cbc0038I FlowCover was tried 10 times and created 0 cuts of which 0 were active after adding rounds of cuts (0.008 seconds)
Cbc0038I TwoMirCuts was tried 343 times and created 247 cuts of which 0 were active after adding rounds of cuts (0.517 seconds)
Cbc0038I ZeroHalf was tried 343 times and created 841 cuts of which 0 were active after adding rounds of cuts (2.292 seconds)
Cbc0038I Stored from first was tried 343 times and created 682 cuts of which 0 were active after adding rounds of cuts (0.000 seconds)
Cbc0012I Integer solution of 9 found by Reduced search after 139548 iterations and 537 nodes (91.66 seconds)
Cbc0001I Search completed - best objective 9, took 139548 iterations and 537 nodes (91.66 seconds)
Cbc0032I Strong branching done 566 times (37945 iterations), fathomed 1 nodes and fixed 14 variables
Cbc0035I Maximum depth 20, 0 variables fixed on reduced cost
Cuts at root node changed objective from 1.55769 to 6
Probing was tried 74 times and created 5619 cuts of which 41 were active after adding rounds of cuts (0.765 seconds)
Gomory was tried 73 times and created 32 cuts of which 0 were active after adding rounds of cuts (0.669 seconds)
Knapsack was tried 73 times and created 31 cuts of which 0 were active after adding rounds of cuts (0.204 seconds)
Clique was tried 29 times and created 22 cuts of which 0 were active after adding rounds of cuts (0.037 seconds)
MixedIntegerRounding2 was tried 29 times and created 0 cuts of which 0 were active after adding rounds of cuts (0.076 seconds)
FlowCover was tried 29 times and created 0 cuts of which 0 were active after adding rounds of cuts (0.037 seconds)
TwoMirCuts was tried 73 times and created 477 cuts of which 0 were active after adding rounds of cuts (0.220 seconds)
ZeroHalf was tried 73 times and created 228 cuts of which 0 were active after adding rounds of cuts (0.997 seconds)
ImplicationCuts was tried 21 times and created 34 cuts of which 0 were active after adding rounds of cuts (0.005 seconds)

Result - Optimal solution found

Objective value:                9.00000000
Enumerated nodes:               537
Total iterations:               139548
Time (CPU seconds):             91.63
Time (Wallclock seconds):       91.86

Option for printingOptions changed from normal to all
Total time (CPU seconds):       91.71   (Wallclock seconds):       91.95

end constraints done
general activity object constraints done
duration constraints done
resource constraints done

Time slot  0
record claim  on object  1 ( claim )  with  -
record claim  on object  1 ( claim )  with  Willy
record claim  on object  2 ( claim )  with  -
record claim  on object  2 ( claim )  with  Emil
record claim  on object  4 ( claim )  with  -
record claim  on object  4 ( claim )  with  Wanda

Time slot  1
record claim  on object  5 ( claim )  with  -
record claim  on object  5 ( claim )  with  Emil
question claim (basic)  on object  1 ( claim )  with  -
question claim (basic)  on object  1 ( claim )  with  Wanda
question claim (request assessment)  on object  2 ( claim )  with  -
question claim (request assessment)  on object  2 ( claim )  with  Willy
question claim (request assessment)  on object  6 ( assessment )  with  -
question claim (request assessment)  on object  6 ( assessment )  with  Willy

Time slot  2
question claim (basic)  on object  4 ( claim )  with  -
question claim (basic)  on object  4 ( claim )  with  Wanda
decide claim (basic)  on object  1 ( claim )  with  -
decide claim (basic)  on object  1 ( claim )  with  Willy
decide claim (basic)  on object  1 ( claim )  with  Emil

Time slot  3
assess claim  on object  6 ( assessment )  with  -
assess claim  on object  6 ( assessment )  with  Erika
question claim (basic)  on object  5 ( claim )  with  -
question claim (basic)  on object  5 ( claim )  with  Willy
decide claim (basic)  on object  4 ( claim )  with  -
decide claim (basic)  on object  4 ( claim )  with  Wanda
decide claim (basic)  on object  4 ( claim )  with  Emil

Time slot  4
record claim  on object  0 ( claim )  with  -
record claim  on object  0 ( claim )  with  Emil
decide claim (basic)  on object  5 ( claim )  with  -
decide claim (basic)  on object  5 ( claim )  with  Wanda
decide claim (basic)  on object  5 ( claim )  with  Willy

Time slot  5
record claim  on object  3 ( claim )  with  -
record claim  on object  3 ( claim )  with  Emil
decide claim (with assessment)  on object  2 ( claim )  with  -
decide claim (with assessment)  on object  2 ( claim )  with  Wanda
decide claim (with assessment)  on object  2 ( claim )  with  Willy
decide claim (with assessment)  on object  6 ( assessment )  with  -
decide claim (with assessment)  on object  6 ( assessment )  with  Wanda
decide claim (with assessment)  on object  6 ( assessment )  with  Willy

Time slot  6
question claim (basic)  on object  0 ( claim )  with  -
question claim (basic)  on object  0 ( claim )  with  Willy
question claim (basic)  on object  3 ( claim )  with  -
question claim (basic)  on object  3 ( claim )  with  Emil

Time slot  7
decide claim (basic)  on object  3 ( claim )  with  -
decide claim (basic)  on object  3 ( claim )  with  Willy
decide claim (basic)  on object  3 ( claim )  with  Emil

Time slot  8
decide claim (basic)  on object  0 ( claim )  with  -
decide claim (basic)  on object  0 ( claim )  with  Willy
decide claim (basic)  on object  0 ( claim )  with  Emil

Time slot  9
finish  on object  0 ( claim )  with  -
finish  on object  1 ( claim )  with  -
finish  on object  2 ( claim )  with  -
finish  on object  3 ( claim )  with  -
finish  on object  4 ( claim )  with  -
finish  on object  5 ( claim )  with  -
finish  on object  6 ( assessment )  with  -

Time slot  10

Time slot  11

Time slot  12

Time slot  13

Time slot  14

Time slot  15
